p cnf 20 20
-8 -4 12 0
11 5 13 0
2 -18 -3 0
14 -4 9 0
-10 5 -17 0
-16 -6 -10 0
8 -6 12 0
-12 -14 5 0
-16 -14 -10 0
-2 -7 -18 0
-1 19 17 0
8 -18 -20 0
8 -1 6 0
14 -15 17 0
-13 -14 -17 0
2 -13 -11 0
18 -9 -15 0
-5 10 -9 0
1 5 -6 0
18 -15 6 0
